14 6 0 0 0
1	-0.577350269 -0.577350269 -0.577350269
2	 0.577350269 -0.577350269 -0.577350269
3	-0.577350269  0.577350269 -0.577350269
4	 0.577350269  0.577350269 -0.577350269
5	-0.577350269 -0.577350269  0.577350269
6	 0.577350269 -0.577350269  0.577350269
7	-0.577350269  0.577350269  0.577350269
8        0.577350269 -0.577350269 -0.577350269
9       -0.577350269  0.577350269 -0.577350269
10        0.577350269  0.577350269 -0.577350269
11      -0.577350269 -0.577350269  0.577350269
12        0.577350269 -0.577350269  0.577350269
13       -0.577350269  0.577350269  0.577350269
14	 0.577350269  0.577350269  0.577350269
1 1 quad 1 2 4 3
2 0 quad 13 14 12 11
3 1 quad 5 6 2 1
4 0 quad 10 14 13 9
5 1 quad 1 3 7 5
6 0 quad 12 14 10 8

