494 390 0 0 0
   1  -4  -4  -1.003
   2  -4   4  -1.003
   3   4   4  -1.003
   4   4  -4  -1.003
   5  -4  -4   6.997
   6  -4   4   6.997
   7   4   4   6.997
   8   4  -4   6.997
   9  -4  -4  -1.003
   10   4  -4  -1.003
   11   4  -4   6.997
   12  -4  -4   6.997
   13  -4   4  -1.003
   14   4   4  -1.003
   15   4   4   6.997
   16  -4   4   6.997
   17  -4  -4  -1.003
   18  -4  -4   6.997
   19  -4   4   6.997
   20  -4   4  -1.003
   21   4  -4  -1.003
   22   4  -4   6.997
   23   4   4   6.997
   24   4   4  -1.003
   25  -4                       0  -1.003
   26                       0  -4  -1.003
   27                       0   4  -1.003
   28   4                       0  -1.003
   29  -4                       0   6.997
   30                       0  -4   6.997
   31                       0   4   6.997
   32   4                       0   6.997
   33                       0  -4  -1.003
   34  -4  -4   2.997
   35   4  -4   2.997
   36                       0  -4   6.997
   37                       0   4  -1.003
   38  -4   4   2.997
   39   4   4   2.997
   40                       0   4   6.997
   41  -4  -4   2.997
   42  -4                       0  -1.003
   43  -4                       0   6.997
   44  -4   4   2.997
   45   4  -4   2.997
   46   4                       0  -1.003
   47   4                       0   6.997
   48   4   4   2.997
   49                       0                       0  -1.003
   50                       0                       0   6.997
   51                       0  -4   2.997
   52                       0   4   2.997
   53  -4                       0   2.997
   54   4                       0   2.997
   55  -4  -2  -1.003
   56  -4   2  -1.003
   57  -2  -4  -1.003
   58   2  -4  -1.003
   59  -2   4  -1.003
   60   2   4  -1.003
   61   4  -2  -1.003
   62   4   2  -1.003
   63  -4  -2   6.997
   64  -4   2   6.997
   65  -2  -4   6.997
   66   2  -4   6.997
   67  -2   4   6.997
   68   2   4   6.997
   69   4  -2   6.997
   70   4   2   6.997
   71  -2  -4  -1.003
   72   2  -4  -1.003
   73  -4  -4   0.997
   74  -4  -4   4.997
   75   4  -4   0.997
   76   4  -4   4.997
   77  -2  -4   6.997
   78   2  -4   6.997
   79  -2   4  -1.003
   80   2   4  -1.003
   81  -4   4   0.997
   82  -4   4   4.997
   83   4   4   0.997
   84   4   4   4.997
   85  -2   4   6.997
   86   2   4   6.997
   87  -4  -4   0.997
   88  -4  -4   4.997
   89  -4  -2  -1.003
   90  -4   2  -1.003
   91  -4  -2   6.997
   92  -4   2   6.997
   93  -4   4   0.997
   94  -4   4   4.997
   95   4  -4   0.997
   96   4  -4   4.997
   97   4  -2  -1.003
   98   4   2  -1.003
   99   4  -2   6.997
   100   4   2   6.997
   101   4   4   0.997
   102   4   4   4.997
   103  -2                       0  -1.003
   104   2                       0  -1.003
   105                       0  -2  -1.003
   106                       0   2  -1.003
   107                       0  -2   6.997
   108                       0   2   6.997
   109  -2                       0   6.997
   110   2                       0   6.997
   111                       0  -4   0.997
   112                       0  -4   4.997
   113  -2  -4   2.997
   114   2  -4   2.997
   115  -2   4   2.997
   116   2   4   2.997
   117                       0   4   0.997
   118                       0   4   4.997
   119  -4  -2   2.997
   120  -4   2   2.997
   121  -4                       0   0.997
   122  -4                       0   4.997
   123   4                       0   0.997
   124   4                       0   4.997
   125   4  -2   2.997
   126   4   2   2.997
   127  -2  -2  -1.003
   128  -2   2  -1.003
   129   2  -2  -1.003
   130   2   2  -1.003
   131  -2  -2   6.997
   132   2  -2   6.997
   133  -2   2   6.997
   134   2   2   6.997
   135  -2  -4   0.997
   136   2  -4   0.997
   137  -2  -4   4.997
   138   2  -4   4.997
   139  -2   4   0.997
   140  -2   4   4.997
   141   2   4   0.997
   142   2   4   4.997
   143  -4  -2   0.997
   144  -4  -2   4.997
   145  -4   2   0.997
   146  -4   2   4.997
   147   4  -2   0.997
   148   4   2   0.997
   149   4  -2   4.997
   150   4   2   4.997
   151  -4  -3  -1.003
   152  -4  -1  -1.003
   153  -4   1  -1.003
   154  -4   3  -1.003
   155  -3  -4  -1.003
   156  -1  -4  -1.003
   157   1  -4  -1.003
   158   3  -4  -1.003
   159  -3   4  -1.003
   160  -1   4  -1.003
   161   1   4  -1.003
   162   3   4  -1.003
   163   4  -3  -1.003
   164   4  -1  -1.003
   165   4   1  -1.003
   166   4   3  -1.003
   167  -4  -3   6.997
   168  -4  -1   6.997
   169  -4   1   6.997
   170  -4   3   6.997
   171  -3  -4   6.997
   172  -1  -4   6.997
   173   1  -4   6.997
   174   3  -4   6.997
   175  -3   4   6.997
   176  -1   4   6.997
   177   1   4   6.997
   178   3   4   6.997
   179   4  -3   6.997
   180   4  -1   6.997
   181   4   1   6.997
   182   4   3   6.997
   183  -3  -4  -1.003
   184  -1  -4  -1.003
   185   1  -4  -1.003
   186   3  -4  -1.003
   187  -4  -4  -0.003
   188  -4  -4   1.997
   189  -4  -4   3.997
   190  -4  -4   5.997
   191   4  -4  -0.003
   192   4  -4   1.997
   193   4  -4   3.997
   194   4  -4   5.997
   195  -3  -4   6.997
   196  -1  -4   6.997
   197   1  -4   6.997
   198   3  -4   6.997
   199  -3   4  -1.003
   200  -1   4  -1.003
   201   1   4  -1.003
   202   3   4  -1.003
   203  -4   4  -0.003
   204  -4   4   1.997
   205  -4   4   3.997
   206  -4   4   5.997
   207   4   4  -0.003
   208   4   4   1.997
   209   4   4   3.997
   210   4   4   5.997
   211  -3   4   6.997
   212  -1   4   6.997
   213   1   4   6.997
   214   3   4   6.997
   215  -4  -4  -0.003
   216  -4  -4   1.997
   217  -4  -4   3.997
   218  -4  -4   5.997
   219  -4  -3  -1.003
   220  -4  -1  -1.003
   221  -4   1  -1.003
   222  -4   3  -1.003
   223  -4  -3   6.997
   224  -4  -1   6.997
   225  -4   1   6.997
   226  -4   3   6.997
   227  -4   4  -0.003
   228  -4   4   1.997
   229  -4   4   3.997
   230  -4   4   5.997
   231   4  -4  -0.003
   232   4  -4   1.997
   233   4  -4   3.997
   234   4  -4   5.997
   235   4  -3  -1.003
   236   4  -1  -1.003
   237   4   1  -1.003
   238   4   3  -1.003
   239   4  -3   6.997
   240   4  -1   6.997
   241   4   1   6.997
   242   4   3   6.997
   243   4   4  -0.003
   244   4   4   1.997
   245   4   4   3.997
   246   4   4   5.997
   247  -3                       0  -1.003
   248  -1                       0  -1.003
   249   1                       0  -1.003
   250   3                       0  -1.003
   251                       0  -3  -1.003
   252                       0  -1  -1.003
   253                       0   1  -1.003
   254                       0   3  -1.003
   255                       0  -3   6.997
   256                       0  -1   6.997
   257                       0   1   6.997
   258                       0   3   6.997
   259  -3                       0   6.997
   260  -1                       0   6.997
   261   1                       0   6.997
   262   3                       0   6.997
   263                       0  -4  -0.003
   264                       0  -4   1.997
   265                       0  -4   3.997
   266                       0  -4   5.997
   267  -3  -4   2.997
   268  -1  -4   2.997
   269   1  -4   2.997
   270   3  -4   2.997
   271  -3   4   2.997
   272  -1   4   2.997
   273   1   4   2.997
   274   3   4   2.997
   275                       0   4  -0.003
   276                       0   4   1.997
   277                       0   4   3.997
   278                       0   4   5.997
   279  -4  -3   2.997
   280  -4  -1   2.997
   281  -4   1   2.997
   282  -4   3   2.997
   283  -4                       0  -0.003
   284  -4                       0   1.997
   285  -4                       0   3.997
   286  -4                       0   5.997
   287   4                       0  -0.003
   288   4                       0   1.997
   289   4                       0   3.997
   290   4                       0   5.997
   291   4  -3   2.997
   292   4  -1   2.997
   293   4   1   2.997
   294   4   3   2.997
   295  -3  -2  -1.003
   296  -1  -2  -1.003
   297  -2  -3  -1.003
   298  -2  -1  -1.003
   299  -3   2  -1.003
   300  -1   2  -1.003
   301  -2   1  -1.003
   302  -2   3  -1.003
   303   1  -2  -1.003
   304   3  -2  -1.003
   305   2  -3  -1.003
   306   2  -1  -1.003
   307   1   2  -1.003
   308   3   2  -1.003
   309   2   1  -1.003
   310   2   3  -1.003
   311  -2  -3   6.997
   312  -2  -1   6.997
   313  -3  -2   6.997
   314  -1  -2   6.997
   315   2  -3   6.997
   316   2  -1   6.997
   317   1  -2   6.997
   318   3  -2   6.997
   319  -2   1   6.997
   320  -2   3   6.997
   321  -3   2   6.997
   322  -1   2   6.997
   323   2   1   6.997
   324   2   3   6.997
   325   1   2   6.997
   326   3   2   6.997
   327  -2  -4  -0.003
   328  -2  -4   1.997
   329  -3  -4   0.997
   330  -1  -4   0.997
   331   2  -4  -0.003
   332   2  -4   1.997
   333   1  -4   0.997
   334   3  -4   0.997
   335  -2  -4   3.997
   336  -2  -4   5.997
   337  -3  -4   4.997
   338  -1  -4   4.997
   339   2  -4   3.997
   340   2  -4   5.997
   341   1  -4   4.997
   342   3  -4   4.997
   343  -3   4   0.997
   344  -1   4   0.997
   345  -2   4  -0.003
   346  -2   4   1.997
   347  -3   4   4.997
   348  -1   4   4.997
   349  -2   4   3.997
   350  -2   4   5.997
   351   1   4   0.997
   352   3   4   0.997
   353   2   4  -0.003
   354   2   4   1.997
   355   1   4   4.997
   356   3   4   4.997
   357   2   4   3.997
   358   2   4   5.997
   359  -4  -3   0.997
   360  -4  -1   0.997
   361  -4  -2  -0.003
   362  -4  -2   1.997
   363  -4  -3   4.997
   364  -4  -1   4.997
   365  -4  -2   3.997
   366  -4  -2   5.997
   367  -4   1   0.997
   368  -4   3   0.997
   369  -4   2  -0.003
   370  -4   2   1.997
   371  -4   1   4.997
   372  -4   3   4.997
   373  -4   2   3.997
   374  -4   2   5.997
   375   4  -2  -0.003
   376   4  -2   1.997
   377   4  -3   0.997
   378   4  -1   0.997
   379   4   2  -0.003
   380   4   2   1.997
   381   4   1   0.997
   382   4   3   0.997
   383   4  -2   3.997
   384   4  -2   5.997
   385   4  -3   4.997
   386   4  -1   4.997
   387   4   2   3.997
   388   4   2   5.997
   389   4   1   4.997
   390   4   3   4.997
   391  -3  -3  -1.003
   392  -3  -1  -1.003
   393  -1  -3  -1.003
   394  -1  -1  -1.003
   395  -3   1  -1.003
   396  -3   3  -1.003
   397  -1   1  -1.003
   398  -1   3  -1.003
   399   1  -3  -1.003
   400   1  -1  -1.003
   401   3  -3  -1.003
   402   3  -1  -1.003
   403   1   1  -1.003
   404   1   3  -1.003
   405   3   1  -1.003
   406   3   3  -1.003
   407  -3  -3   6.997
   408  -1  -3   6.997
   409  -3  -1   6.997
   410  -1  -1   6.997
   411   1  -3   6.997
   412   3  -3   6.997
   413   1  -1   6.997
   414   3  -1   6.997
   415  -3   1   6.997
   416  -1   1   6.997
   417  -3   3   6.997
   418  -1   3   6.997
   419   1   1   6.997
   420   3   1   6.997
   421   1   3   6.997
   422   3   3   6.997
   423  -3  -4  -0.003
   424  -1  -4  -0.003
   425  -3  -4   1.997
   426  -1  -4   1.997
   427   1  -4  -0.003
   428   3  -4  -0.003
   429   1  -4   1.997
   430   3  -4   1.997
   431  -3  -4   3.997
   432  -1  -4   3.997
   433  -3  -4   5.997
   434  -1  -4   5.997
   435   1  -4   3.997
   436   3  -4   3.997
   437   1  -4   5.997
   438   3  -4   5.997
   439  -3   4  -0.003
   440  -3   4   1.997
   441  -1   4  -0.003
   442  -1   4   1.997
   443  -3   4   3.997
   444  -3   4   5.997
   445  -1   4   3.997
   446  -1   4   5.997
   447   1   4  -0.003
   448   1   4   1.997
   449   3   4  -0.003
   450   3   4   1.997
   451   1   4   3.997
   452   1   4   5.997
   453   3   4   3.997
   454   3   4   5.997
   455  -4  -3  -0.003
   456  -4  -3   1.997
   457  -4  -1  -0.003
   458  -4  -1   1.997
   459  -4  -3   3.997
   460  -4  -3   5.997
   461  -4  -1   3.997
   462  -4  -1   5.997
   463  -4   1  -0.003
   464  -4   1   1.997
   465  -4   3  -0.003
   466  -4   3   1.997
   467  -4   1   3.997
   468  -4   1   5.997
   469  -4   3   3.997
   470  -4   3   5.997
   471   4  -3  -0.003
   472   4  -1  -0.003
   473   4  -3   1.997
   474   4  -1   1.997
   475   4   1  -0.003
   476   4   3  -0.003
   477   4   1   1.997
   478   4   3   1.997
   479   4  -3   3.997
   480   4  -1   3.997
   481   4  -3   5.997
   482   4  -1   5.997
   483   4   1   3.997
   484   4   3   3.997
   485   4   1   5.997
   486   4   3   5.997
487	-0.577350269 -0.577350269 -0.577350269
488	 0.577350269 -0.577350269 -0.577350269
489	-0.577350269  0.577350269 -0.577350269
490	 0.577350269  0.577350269 -0.577350269
491	-0.577350269 -0.577350269  0.577350269
492	 0.577350269 -0.577350269  0.577350269
493	-0.577350269  0.577350269  0.577350269
494	 0.577350269  0.577350269  0.577350269
1 2 quad    1 151 391 155 
2 2 quad    151 55 295 391 
3 2 quad    155 391 297 57 
4 2 quad    391 295 127 297 
5 2 quad    55 152 392 295 
6 2 quad    152 25 247 392 
7 2 quad    295 392 298 127 
8 2 quad    392 247 103 298 
9 2 quad    57 297 393 156 
10 2 quad    297 127 296 393 
11 2 quad    156 393 251 26 
12 2 quad    393 296 105 251 
13 2 quad    127 298 394 296 
14 2 quad    298 103 248 394 
15 2 quad    296 394 252 105 
16 2 quad    394 248 49 252 
17 2 quad    25 153 395 247 
18 2 quad    153 56 299 395 
19 2 quad    247 395 301 103 
20 2 quad    395 299 128 301 
21 2 quad    56 154 396 299 
22 2 quad    154 2 159 396 
23 2 quad    299 396 302 128 
24 2 quad    396 159 59 302 
25 2 quad    103 301 397 248 
26 2 quad    301 128 300 397 
27 2 quad    248 397 253 49 
28 2 quad    397 300 106 253 
29 2 quad    128 302 398 300 
30 2 quad    302 59 160 398 
31 2 quad    300 398 254 106 
32 2 quad    398 160 27 254 
33 2 quad    26 251 399 157 
34 2 quad    251 105 303 399 
35 2 quad    157 399 305 58 
36 2 quad    399 303 129 305 
37 2 quad    105 252 400 303 
38 2 quad    252 49 249 400 
39 2 quad    303 400 306 129 
40 2 quad    400 249 104 306 
41 2 quad    58 305 401 158 
42 2 quad    305 129 304 401 
43 2 quad    158 401 163 4 
44 2 quad    401 304 61 163 
45 2 quad    129 306 402 304 
46 2 quad    306 104 250 402 
47 2 quad    304 402 164 61 
48 2 quad    402 250 28 164 
49 2 quad    49 253 403 249 
50 2 quad    253 106 307 403 
51 2 quad    249 403 309 104 
52 2 quad    403 307 130 309 
53 2 quad    106 254 404 307 
54 2 quad    254 27 161 404 
55 2 quad    307 404 310 130 
56 2 quad    404 161 60 310 
57 2 quad    104 309 405 250 
58 2 quad    309 130 308 405 
59 2 quad    250 405 165 28 
60 2 quad    405 308 62 165 
61 2 quad    130 310 406 308 
62 2 quad    310 60 162 406 
63 2 quad    308 406 166 62 
64 2 quad    406 162 3 166 
65 3 quad    5 171 407 167 
66 3 quad    171 65 311 407 
67 3 quad    167 407 313 63 
68 3 quad    407 311 131 313 
69 3 quad    65 172 408 311 
70 3 quad    172 30 255 408 
71 3 quad    311 408 314 131 
72 3 quad    408 255 107 314 
73 3 quad    63 313 409 168 
74 3 quad    313 131 312 409 
75 3 quad    168 409 259 29 
76 3 quad    409 312 109 259 
77 3 quad    131 314 410 312 
78 3 quad    314 107 256 410 
79 3 quad    312 410 260 109 
80 3 quad    410 256 50 260 
81 3 quad    30 173 411 255 
82 3 quad    173 66 315 411 
83 3 quad    255 411 317 107 
84 3 quad    411 315 132 317 
85 3 quad    66 174 412 315 
86 3 quad    174 8 179 412 
87 3 quad    315 412 318 132 
88 3 quad    412 179 69 318 
89 3 quad    107 317 413 256 
90 3 quad    317 132 316 413 
91 3 quad    256 413 261 50 
92 3 quad    413 316 110 261 
93 3 quad    132 318 414 316 
94 3 quad    318 69 180 414 
95 3 quad    316 414 262 110 
96 3 quad    414 180 32 262 
97 3 quad    29 259 415 169 
98 3 quad    259 109 319 415 
99 3 quad    169 415 321 64 
100 3 quad    415 319 133 321 
101 3 quad    109 260 416 319 
102 3 quad    260 50 257 416 
103 3 quad    319 416 322 133 
104 3 quad    416 257 108 322 
105 3 quad    64 321 417 170 
106 3 quad    321 133 320 417 
107 3 quad    170 417 175 6 
108 3 quad    417 320 67 175 
109 3 quad    133 322 418 320 
110 3 quad    322 108 258 418 
111 3 quad    320 418 176 67 
112 3 quad    418 258 31 176 
113 3 quad    50 261 419 257 
114 3 quad    261 110 323 419 
115 3 quad    257 419 325 108 
116 3 quad    419 323 134 325 
117 3 quad    110 262 420 323 
118 3 quad    262 32 181 420 
119 3 quad    323 420 326 134 
120 3 quad    420 181 70 326 
121 3 quad    108 325 421 258 
122 3 quad    325 134 324 421 
123 3 quad    258 421 177 31 
124 3 quad    421 324 68 177 
125 3 quad    134 326 422 324 
126 3 quad    326 70 182 422 
127 3 quad    324 422 178 68 
128 3 quad    422 182 7 178 
129 2 quad    9 183 423 187 
130 2 quad    183 71 327 423 
131 2 quad    187 423 329 73 
132 2 quad    423 327 135 329 
133 2 quad    71 184 424 327 
134 2 quad    184 33 263 424 
135 2 quad    327 424 330 135 
136 2 quad    424 263 111 330 
137 2 quad    73 329 425 188 
138 2 quad    329 135 328 425 
139 2 quad    188 425 267 34 
140 2 quad    425 328 113 267 
141 2 quad    135 330 426 328 
142 2 quad    330 111 264 426 
143 2 quad    328 426 268 113 
144 2 quad    426 264 51 268 
145 2 quad    33 185 427 263 
146 2 quad    185 72 331 427 
147 2 quad    263 427 333 111 
148 2 quad    427 331 136 333 
149 2 quad    72 186 428 331 
150 2 quad    186 10 191 428 
151 2 quad    331 428 334 136 
152 2 quad    428 191 75 334 
153 2 quad    111 333 429 264 
154 2 quad    333 136 332 429 
155 2 quad    264 429 269 51 
156 2 quad    429 332 114 269 
157 2 quad    136 334 430 332 
158 2 quad    334 75 192 430 
159 2 quad    332 430 270 114 
160 2 quad    430 192 35 270 
161 2 quad    34 267 431 189 
162 2 quad    267 113 335 431 
163 2 quad    189 431 337 74 
164 2 quad    431 335 137 337 
165 2 quad    113 268 432 335 
166 2 quad    268 51 265 432 
167 2 quad    335 432 338 137 
168 2 quad    432 265 112 338 
169 2 quad    74 337 433 190 
170 2 quad    337 137 336 433 
171 2 quad    190 433 195 12 
172 2 quad    433 336 77 195 
173 2 quad    137 338 434 336 
174 2 quad    338 112 266 434 
175 2 quad    336 434 196 77 
176 2 quad    434 266 36 196 
177 2 quad    51 269 435 265 
178 2 quad    269 114 339 435 
179 2 quad    265 435 341 112 
180 2 quad    435 339 138 341 
181 2 quad    114 270 436 339 
182 2 quad    270 35 193 436 
183 2 quad    339 436 342 138 
184 2 quad    436 193 76 342 
185 2 quad    112 341 437 266 
186 2 quad    341 138 340 437 
187 2 quad    266 437 197 36 
188 2 quad    437 340 78 197 
189 2 quad    138 342 438 340 
190 2 quad    342 76 194 438 
191 2 quad    340 438 198 78 
192 2 quad    438 194 11 198 
193 2 quad    13 203 439 199 
194 2 quad    203 81 343 439 
195 2 quad    199 439 345 79 
196 2 quad    439 343 139 345 
197 2 quad    81 204 440 343 
198 2 quad    204 38 271 440 
199 2 quad    343 440 346 139 
200 2 quad    440 271 115 346 
201 2 quad    79 345 441 200 
202 2 quad    345 139 344 441 
203 2 quad    200 441 275 37 
204 2 quad    441 344 117 275 
205 2 quad    139 346 442 344 
206 2 quad    346 115 272 442 
207 2 quad    344 442 276 117 
208 2 quad    442 272 52 276 
209 2 quad    38 205 443 271 
210 2 quad    205 82 347 443 
211 2 quad    271 443 349 115 
212 2 quad    443 347 140 349 
213 2 quad    82 206 444 347 
214 2 quad    206 16 211 444 
215 2 quad    347 444 350 140 
216 2 quad    444 211 85 350 
217 2 quad    115 349 445 272 
218 2 quad    349 140 348 445 
219 2 quad    272 445 277 52 
220 2 quad    445 348 118 277 
221 2 quad    140 350 446 348 
222 2 quad    350 85 212 446 
223 2 quad    348 446 278 118 
224 2 quad    446 212 40 278 
225 2 quad    37 275 447 201 
226 2 quad    275 117 351 447 
227 2 quad    201 447 353 80 
228 2 quad    447 351 141 353 
229 2 quad    117 276 448 351 
230 2 quad    276 52 273 448 
231 2 quad    351 448 354 141 
232 2 quad    448 273 116 354 
233 2 quad    80 353 449 202 
234 2 quad    353 141 352 449 
235 2 quad    202 449 207 14 
236 2 quad    449 352 83 207 
237 2 quad    141 354 450 352 
238 2 quad    354 116 274 450 
239 2 quad    352 450 208 83 
240 2 quad    450 274 39 208 
241 2 quad    52 277 451 273 
242 2 quad    277 118 355 451 
243 2 quad    273 451 357 116 
244 2 quad    451 355 142 357 
245 2 quad    118 278 452 355 
246 2 quad    278 40 213 452 
247 2 quad    355 452 358 142 
248 2 quad    452 213 86 358 
249 2 quad    116 357 453 274 
250 2 quad    357 142 356 453 
251 2 quad    274 453 209 39 
252 2 quad    453 356 84 209 
253 2 quad    142 358 454 356 
254 2 quad    358 86 214 454 
255 2 quad    356 454 210 84 
256 2 quad    454 214 15 210 
257 2 quad    17 215 455 219 
258 2 quad    215 87 359 455 
259 2 quad    219 455 361 89 
260 2 quad    455 359 143 361 
261 2 quad    87 216 456 359 
262 2 quad    216 41 279 456 
263 2 quad    359 456 362 143 
264 2 quad    456 279 119 362 
265 2 quad    89 361 457 220 
266 2 quad    361 143 360 457 
267 2 quad    220 457 283 42 
268 2 quad    457 360 121 283 
269 2 quad    143 362 458 360 
270 2 quad    362 119 280 458 
271 2 quad    360 458 284 121 
272 2 quad    458 280 53 284 
273 2 quad    41 217 459 279 
274 2 quad    217 88 363 459 
275 2 quad    279 459 365 119 
276 2 quad    459 363 144 365 
277 2 quad    88 218 460 363 
278 2 quad    218 18 223 460 
279 2 quad    363 460 366 144 
280 2 quad    460 223 91 366 
281 2 quad    119 365 461 280 
282 2 quad    365 144 364 461 
283 2 quad    280 461 285 53 
284 2 quad    461 364 122 285 
285 2 quad    144 366 462 364 
286 2 quad    366 91 224 462 
287 2 quad    364 462 286 122 
288 2 quad    462 224 43 286 
289 2 quad    42 283 463 221 
290 2 quad    283 121 367 463 
291 2 quad    221 463 369 90 
292 2 quad    463 367 145 369 
293 2 quad    121 284 464 367 
294 2 quad    284 53 281 464 
295 2 quad    367 464 370 145 
296 2 quad    464 281 120 370 
297 2 quad    90 369 465 222 
298 2 quad    369 145 368 465 
299 2 quad    222 465 227 20 
300 2 quad    465 368 93 227 
301 2 quad    145 370 466 368 
302 2 quad    370 120 282 466 
303 2 quad    368 466 228 93 
304 2 quad    466 282 44 228 
305 2 quad    53 285 467 281 
306 2 quad    285 122 371 467 
307 2 quad    281 467 373 120 
308 2 quad    467 371 146 373 
309 2 quad    122 286 468 371 
310 2 quad    286 43 225 468 
311 2 quad    371 468 374 146 
312 2 quad    468 225 92 374 
313 2 quad    120 373 469 282 
314 2 quad    373 146 372 469 
315 2 quad    282 469 229 44 
316 2 quad    469 372 94 229 
317 2 quad    146 374 470 372 
318 2 quad    374 92 226 470 
319 2 quad    372 470 230 94 
320 2 quad    470 226 19 230 
321 2 quad    21 235 471 231 
322 2 quad    235 97 375 471 
323 2 quad    231 471 377 95 
324 2 quad    471 375 147 377 
325 2 quad    97 236 472 375 
326 2 quad    236 46 287 472 
327 2 quad    375 472 378 147 
328 2 quad    472 287 123 378 
329 2 quad    95 377 473 232 
330 2 quad    377 147 376 473 
331 2 quad    232 473 291 45 
332 2 quad    473 376 125 291 
333 2 quad    147 378 474 376 
334 2 quad    378 123 288 474 
335 2 quad    376 474 292 125 
336 2 quad    474 288 54 292 
337 2 quad    46 237 475 287 
338 2 quad    237 98 379 475 
339 2 quad    287 475 381 123 
340 2 quad    475 379 148 381 
341 2 quad    98 238 476 379 
342 2 quad    238 24 243 476 
343 2 quad    379 476 382 148 
344 2 quad    476 243 101 382 
345 2 quad    123 381 477 288 
346 2 quad    381 148 380 477 
347 2 quad    288 477 293 54 
348 2 quad    477 380 126 293 
349 2 quad    148 382 478 380 
350 2 quad    382 101 244 478 
351 2 quad    380 478 294 126 
352 2 quad    478 244 48 294 
353 2 quad    45 291 479 233 
354 2 quad    291 125 383 479 
355 2 quad    233 479 385 96 
356 2 quad    479 383 149 385 
357 2 quad    125 292 480 383 
358 2 quad    292 54 289 480 
359 2 quad    383 480 386 149 
360 2 quad    480 289 124 386 
361 2 quad    96 385 481 234 
362 2 quad    385 149 384 481 
363 2 quad    234 481 239 22 
364 2 quad    481 384 99 239 
365 2 quad    149 386 482 384 
366 2 quad    386 124 290 482 
367 2 quad    384 482 240 99 
368 2 quad    482 290 47 240 
369 2 quad    54 293 483 289 
370 2 quad    293 126 387 483 
371 2 quad    289 483 389 124 
372 2 quad    483 387 150 389 
373 2 quad    126 294 484 387 
374 2 quad    294 48 245 484 
375 2 quad    387 484 390 150 
376 2 quad    484 245 102 390 
377 2 quad    124 389 485 290 
378 2 quad    389 150 388 485 
379 2 quad    290 485 241 47 
380 2 quad    485 388 100 241 
381 2 quad    150 390 486 388 
382 2 quad    390 102 246 486 
383 2 quad    388 486 242 100 
384 2 quad    486 246 23 242
385 1 quad 489 487 488 490
386 1 quad 491 493 494 492
387 1 quad 487 491 492 488 
388 1 quad 489 490 494 493
389 1 quad 491 487 489 493
390 1 quad 488 492 494 490
