14 6 0 0 0
1	-0.894337567 -0.211324865 -0.394337567
2	 0.105662433 -0.211324865 -0.971687836
3	-0.605662433  0.788675134  0.105662433
4	 0.394337567  0.788675134 -0.471687836
5	-0.394337567 -0.788675134  0.471687836
6	 0.605662433 -0.788675134 -0.105662433
7	-0.105662433  0.211324865  0.971687836
8	 0.105662433 -0.211324865 -0.971687836
9	-0.605662433  0.788675134  0.105662433
10	 0.394337567  0.788675134 -0.471687836
11	-0.394337567 -0.788675134  0.471687836
12	 0.605662433 -0.788675134 -0.105662433
13	-0.105662433  0.211324865  0.971687836
14	 0.894337567  0.211324865  0.394337567
1 1 quad 3 4 2 1
2 0 quad 11 12 14 13
3 1 quad 1 2 6 5 
4 0 quad 9 13 14 10
5 1 quad 5 7 3 1
6 0 quad 8 10 14 12
