215 195 0 0 0
1  0.00770619 -0.00138354 0.999969
2  0.00835239 0.000577375 -0.999965
3  0.344346 0.0255043 0.938496
4  0.349461 -0.0342793 -0.936324
5  0.291388 0.358863 0.886742
6  0.360028 0.324054 -0.874854
7  -0.00307019 0.308819 0.951116
8  0.0172181 0.340909 -0.919739
9  -0.290973 0.317121 0.902646
10  -0.307394 0.326695 -0.893745
11  -0.309602 0.0046795 0.950855
12  -0.312045 0.010455 -0.95001
13  -0.319603 -0.328609 0.888746
14  -0.314955 -0.293538 -0.902573
15  0.0258426 -0.352907 0.935301
16  -0.0185919 -0.314532 -0.949065
17  0.367492 -0.32129 0.872767
18  0.282979 -0.391262 -0.875692
19  -0.574914 0.300206 -0.761151
20  -0.570241 0.0227981 -0.821161
21  -0.58812 -0.250643 -0.768956
22  -0.57062 -0.518681 -0.636681
23  -0.290566 -0.561069 -0.775095
24  -0.0590299 -0.533799 -0.843548
25  0.123284 -0.671891 -0.730318
26  0.603356 -0.443168 -0.662996
27  0.658969 -0.0659532 -0.749273
28  0.651597 0.270955 -0.708523
29  0.648454 0.5488 -0.527566
30  0.344249 0.635201 -0.691385
31  0.00655851 0.636653 -0.771122
32  -0.288072 0.595992 -0.749539
33  -0.539796 0.564697 -0.62429
34  -0.762715 0.481228 -0.432071
35  -0.774243 0.226012 -0.591157
36  -0.729175 0.0317951 -0.683556
37  -0.600348 -0.258363 0.756856
38  -0.568717 0.0234696 0.822199
39  -0.558823 0.305148 0.771105
40  -0.499783 0.589245 0.634829
41  -0.229147 0.575973 0.784695
42  -0.019245 0.518017 0.855154
43  0.176819 0.617903 0.766114
44  0.4323 0.696513 0.572701
45  0.584139 0.398865 0.706887
46  0.640168 0.0603165 0.765863
47  0.648357 -0.251416 0.718626
48  0.678549 -0.502526 0.535761
49  0.3955 -0.625901 0.672181
50  0.0458264 -0.673461 0.737801
51  -0.305208 -0.635627 0.709102
52  -0.601435 -0.538617 0.590057
53  -0.820219 -0.394991 0.41379
54  -0.798386 -0.146568 0.584036
55  -0.729889 0.0400688 0.68239
56  -0.792161 -0.153651 -0.590655
57  -0.802465 -0.399585 -0.443149
58  -0.731763 -0.636006 -0.244988
59  -0.485242 -0.759161 -0.433837
60  -0.177136 -0.784572 -0.594196
61  0.85269 -0.364383 -0.37436
62  0.870636 -0.0373718 -0.490506
63  0.820873 0.209996 -0.531102
64  0.581437 0.777455 -0.239783
65  0.260631 0.867617 -0.423453
66  -0.0494638 0.839597 -0.540953
67  -0.652575 0.720637 -0.234153
68  -0.829578 0.558358 0.00601677
69  -0.926821 0.306772 -0.216549
70  -0.765485 0.23622 0.598526
71  -0.744554 0.497097 0.445572
72  -0.624608 0.745489 0.232619
73  -0.346126 0.82573 0.445384
74  -0.0576675 0.773636 0.631001
75  0.18403 0.900534 0.393919
76  0.415791 0.905342 0.0864491
77  0.671158 0.687295 0.277798
78  0.818111 0.380545 0.431138
79  0.848532 0.0565254 0.526116
80  0.811529 -0.181666 0.555353
81  0.865949 -0.334047 0.372218
82  0.666958 -0.693505 0.272429
83  0.400226 -0.837651 0.3717
84  0.0624589 -0.899858 0.431688
85  -0.904043 0.0477081 -0.424772
86  -0.953372 -0.191502 -0.233259
87  -0.900456 -0.43434 -0.0229815
88  -0.755579 -0.627182 0.189056
89  -0.614062 -0.788985 -0.02074
90  -0.905541 0.0575492 0.420337
91  -0.922274 0.312453 0.227562
92  -0.435243 0.899917 -0.0267067
93  -0.0246163 -0.954798 -0.296234
94  0.406725 -0.815634 -0.41148
95  0.738574 -0.650071 -0.178649
96  0.857667 -0.503034 0.106602
97  0.972898 0.101393 -0.20782
98  0.860155 0.379803 -0.340417
99  0.822918 0.565854 -0.0511341
100  -0.131526 0.97268 0.191298
101  0.0878307 0.989177 -0.117535
102  -0.959172 -0.188152 0.211159
103  0.958153 0.264159 0.110287
104  0.966464 -0.0636034 0.2488
105  0.972536 -0.224249 -0.0623357
106  0.618691 -0.784661 0.0390958
107  0.0371742 -0.996087 0.0801738
108  0.381038 -0.924196 0.0259125
109  -0.265634 0.760154 -0.592962
110  -0.439695 0.779726 -0.445753
111  -0.217834 0.930957 -0.29303
112  -0.28285 -0.855879 0.432974
113  -0.550695 -0.752543 0.361128
114  -0.283138 -0.949759 0.133382
115  -0.495826 -0.853132 0.162241
116  -0.374395 -0.912897 -0.162624
117  -0.997999 0.0631726 -0.00273936
118  -6.5 -6.5 -1.003
119  6.5 -6.5 -1.003
120  6.5 6.5 -1.003
121  -6.5 6.5 -1.003
122  -6.5 -6.5 6.5
123  6.5 -6.5 6.5
124  6.5 6.5 6.5
125  -6.5 6.5 6.5
126  0 -6.5 -1.003
127  6.5 0 -1.003
128  0 6.5 -1.003
129  -6.5 0 -1.003
130  0 -6.5 6.5
131  6.5 0 6.5
132  0 6.5 6.5
133  -6.5 0 6.5
134  -6.5 -6.5 0
135  6.5 -6.5 0
136  6.5 6.5 0
137  -6.5 6.5 0
138  0 0 -1.003
139  0 0 6.5
140  0 -6.5 0
141  6.5 0 0
142  0 6.5 0
143  -6.5 0 0
144  -6.5 -3.25 -1.003
145  3.25 -6.5 -1.003
146  6.5 -3.25 -1.003
147  3.25 6.5 -1.003
148  -3.25 -6.5 -1.003
149  6.5 3.25 -1.003
150  -3.25 6.5 -1.003
151  -6.5 3.25 -1.003
152  -6.5 -3.25 0
153  3.25 -6.5 0
154  6.5 -3.25 0
155  3.25 6.5 0
156  -3.25 -6.5 0
157  6.5 3.25 0
158  -3.25 6.5 0
159  -6.5 3.25 0
160  0 -3.25 -1.003
161  3.25 0 -1.003
162  0 3.25 -1.003
163  -3.25 0 -1.003
164  -3.25 -3.25 -1.003
165  3.25 -3.25 -1.003
166  3.25 3.25 -1.003
167  -3.25 3.25 -1.003
168  0 -1.625 -1.003
169  1.625 0 -1.003
170  0 1.625 -1.003
171  -1.625 0 -1.003
172  -3.25 -1.625 -1.003
173  -1.625 -3.25 -1.003
174  3.25 -1.625 -1.003
175  1.625 -3.25 -1.003
176  3.25 1.625 -1.003
177  1.625 3.25 -1.003
178  -3.25 1.625 -1.003
179  -1.625 3.25 -1.003
180  -1.625 -1.625 -1.003
181  1.625 -1.625 -1.003
182  1.625 1.625 -1.003
183  -1.625 1.625 -1.003
184  0 -0.8125 -1.003
185  0.8125 0 -1.003
186  0 0.8125 -1.003
187  -0.8125 0 -1.003
188  -1.625 -0.8125 -1.003
189  -0.8125 -1.625 -1.003
190  1.625 -0.8125 -1.003
191  0.8125 -1.625 -1.003
192  1.625 0.8125 -1.003
193  0.8125 1.625 -1.003
194  -1.625 0.8125 -1.003
195  -0.8125 1.625 -1.003
196  -0.8125 -0.8125 -1.003
197  0.8125 -0.8125 -1.003
198  0.8125 0.8125 -1.003
199  -0.8125 0.8125 -1.003
200  0 -0.40625 -1.003
201  0.40625 0 -1.003
202  0 0.40625 -1.003
203  -0.40625 0 -1.003
204  -0.8125 -0.40625 -1.003
205  -0.40625 -0.8125 -1.003
206  0.8125 -0.40625 -1.003
207  0.40625 -0.8125 -1.003
208  0.8125 0.40625 -1.003
209  0.40625 0.8125 -1.003
210  -0.8125 0.40625 -1.003
211  -0.40625 0.8125 -1.003
212  -0.40625 -0.40625 -1.003
213  0.40625 -0.40625 -1.003
214  0.40625 0.40625 -1.003
215  -0.40625 0.40625 -1.003
1 1 quad 3 1 7 5
2 1 quad 7 1 11 9
3 1 quad 11 1 15 13
4 1 quad 15 1 3 17
5 1 quad 4 2 16 18
6 1 quad 16 2 12 14
7 1 quad 12 2 8 10
8 1 quad 8 2 4 6
9 1 quad 10 19 20 12
10 1 quad 12 20 21 14
11 1 quad 14 21 22 23
12 1 quad 14 23 24 16
13 1 quad 16 24 25 18
14 1 quad 18 26 27 4
15 1 quad 4 27 28 6
16 1 quad 6 28 29 30
17 1 quad 6 30 31 8
18 1 quad 8 31 32 10
19 1 quad 10 32 33 19
20 1 quad 19 33 34 35
21 1 quad 19 35 36 20
22 1 quad 13 37 38 11
23 1 quad 11 38 39 9
24 1 quad 9 39 40 41
25 1 quad 9 41 42 7
26 1 quad 7 42 43 5
27 1 quad 5 43 44 45
28 1 quad 5 45 46 3
29 1 quad 3 46 47 17
30 1 quad 17 47 48 49
31 1 quad 17 49 50 15
32 1 quad 15 50 51 13
33 1 quad 13 51 52 37
34 1 quad 37 52 53 54
35 1 quad 37 54 55 38
36 1 quad 20 36 56 21
37 1 quad 21 56 57 22
38 1 quad 22 57 58 59
39 1 quad 22 59 60 23
40 1 quad 24 23 60 25
41 1 quad 26 61 62 27
42 1 quad 27 62 63 28
43 1 quad 29 64 65 30
44 1 quad 30 65 66 31
45 1 quad 33 110 67 34
46 1 quad 34 67 68 69
47 1 quad 34 69 85 35
48 1 quad 38 55 70 39
49 1 quad 39 70 71 40
50 1 quad 40 71 72 73
51 1 quad 40 73 74 41
52 1 quad 42 41 74 43
53 1 quad 43 74 75 44
54 1 quad 44 75 76 77
55 1 quad 44 77 78 45
56 1 quad 45 78 79 46
57 1 quad 46 79 80 47
58 1 quad 47 80 81 48
59 1 quad 48 81 96 82
60 1 quad 48 82 83 49
61 1 quad 49 83 84 50
62 1 quad 52 113 88 53
63 1 quad 53 88 87 102
64 1 quad 53 102 90 54
65 1 quad 56 85 86 57
66 1 quad 57 86 87 58
67 1 quad 58 87 88 89
68 1 quad 70 90 91 71
69 1 quad 71 91 68 72
70 1 quad 72 68 67 92
71 1 quad 58 89 116 59
72 1 quad 26 94 95 61
73 1 quad 61 95 96 105
74 1 quad 61 105 97 62
75 1 quad 62 97 98 63
76 1 quad 29 98 99 64
77 1 quad 65 101 111 66
78 1 quad 110 111 92 67
79 1 quad 92 111 101 100
80 1 quad 77 99 103 78
81 1 quad 78 103 104 79
82 1 quad 81 104 105 96
83 1 quad 64 99 77 76
84 1 quad 99 98 97 103
85 1 quad 103 97 105 104
86 1 quad 96 95 106 82
87 1 quad 82 106 108 83
88 1 quad 83 108 107 84
89 1 quad 113 115 89 88
90 1 quad 93 107 108 94
91 1 quad 95 94 108 106
92 1 quad 29 28 63 98
93 1 quad 65 64 76 101
94 1 quad 101 76 75 100
95 1 quad 31 66 109 32
96 1 quad 32 109 110 33
97 1 quad 75 74 73 100
98 1 quad 50 84 112 51
99 1 quad 51 112 113 52
100 1 quad 112 114 115 113
101 1 quad 84 107 114 112
102 1 quad 107 93 116 114
103 1 quad 73 72 92 100
104 1 quad 111 110 109 66
105 1 quad 80 79 104 81
106 1 quad 85 56 36 35
107 1 quad 116 93 60 59
108 1 quad 116 89 115 114
109 1 quad 90 102 117 91
110 1 quad 91 117 69 68
111 1 quad 117 86 85 69
112 1 quad 90 70 55 54
113 1 quad 102 87 86 117
114 1 quad 94 25 60 93
115 1 quad 94 26 18 25 
116 2 quad    130 139 133 122 
117 2 quad    123 131 139 130 
118 2 quad    131 124 132 139 
119 2 quad    139 132 125 133 
120 2 quad    123 130 140 135 
121 2 quad    130 122 134 140 
122 2 quad    131 141 136 124 
123 2 quad    123 135 141 131 
124 2 quad    124 136 142 132 
125 2 quad    132 142 137 125 
126 2 quad    122 133 143 134 
127 2 quad    133 125 137 143 
128 2 quad    140 156 148 126 
129 2 quad    156 134 118 148 
130 2 quad    135 153 145 119 
131 2 quad    153 140 126 145 
132 2 quad    135 119 146 154 
133 2 quad    154 146 127 141 
134 2 quad    141 127 149 157 
135 2 quad    157 149 120 136 
136 2 quad    136 120 147 155 
137 2 quad    155 147 128 142 
138 2 quad    142 128 150 158 
139 2 quad    158 150 121 137 
140 2 quad    134 152 144 118 
141 2 quad    152 143 129 144 
142 2 quad    143 159 151 129 
143 2 quad    159 137 121 151 
144 3 quad    126 148 164 160 
145 3 quad    148 118 144 164 
146 3 quad    164 144 129 163 
147 3 quad    119 145 165 146 
148 3 quad    145 126 160 165 
149 3 quad    146 165 161 127 
150 3 quad    127 161 166 149 
151 3 quad    149 166 147 120 
152 3 quad    166 162 128 147 
153 3 quad    163 129 151 167 
154 3 quad    162 167 150 128 
155 3 quad    167 151 121 150 
156 3 quad    160 173 180 168 
157 3 quad    173 164 172 180 
158 3 quad    180 172 163 171 
159 3 quad    165 175 181 174 
160 3 quad    175 160 168 181 
161 3 quad    174 181 169 161 
162 3 quad    161 169 182 176 
163 3 quad    176 182 177 166 
164 3 quad    182 170 162 177 
165 3 quad    171 163 178 183 
166 3 quad    170 183 179 162 
167 3 quad    183 178 167 179 
168 3 quad    168 189 196 184 
169 3 quad    189 180 188 196 
170 3 quad    196 188 171 187 
171 3 quad    181 191 197 190 
172 3 quad    191 168 184 197 
173 3 quad    190 197 185 169 
174 3 quad    169 185 198 192 
175 3 quad    192 198 193 182 
176 3 quad    198 186 170 193 
177 3 quad    187 171 194 199 
178 3 quad    186 199 195 170 
179 3 quad    199 194 183 195 
180 3 quad    184 205 212 200 
181 3 quad    205 196 204 212 
182 3 quad    200 212 203 138 
183 3 quad    212 204 187 203 
184 3 quad    197 207 213 206 
185 3 quad    207 184 200 213 
186 3 quad    206 213 201 185 
187 3 quad    213 200 138 201 
188 3 quad    185 201 214 208 
189 3 quad    201 138 202 214 
190 3 quad    208 214 209 198 
191 3 quad    214 202 186 209 
192 3 quad    138 203 215 202 
193 3 quad    203 187 210 215 
194 3 quad    202 215 211 186 
195 3 quad    215 210 199 211 
