150 96 0 0 0
1  0 0 0
2  0 1 0
3  1 1 0
4  1 0 0
5  0 0 1
6  0 0.5 1
7  0.5 0.5 1
8  0.5 0 1
9  0 0 0
10  1 0 0
11  0.5 0 1
12  0 0 1
13  0 1 0
14  1 1 0
15  0.5 0.5 1
16  0 0.5 1
17  0 0 0
18  0 0 1
19  0 0.5 1
20  0 1 0
21  1 0 0
22  0.5 0 1
23  0.5 0.5 1
24  1 1 0
25  0 0.5 0
26  0.5 0 0
27  0.5 1 0
28  1 0.5 0
29  0 0.25 1
30  0.25 0 1
31  0.25 0.5 1
32  0.5 0.25 1
33  0.5 0 0
34  0 0 0.5
35  0.75 0 0.5
36  0.25 0 1
37  0.5 1 0
38  0 0.75 0.5
39  0.75 0.75 0.5
40  0.25 0.5 1
41  0 0 0.5
42  0 0.5 0
43  0 0.25 1
44  0 0.75 0.5
45  0.75 0 0.5
46  1 0.5 0
47  0.5 0.25 1
48  0.75 0.75 0.5
49  0.5 0.5 0
50  0.25 0.25 1
51  0.375 0 0.5
52  0.375 0.75 0.5
53  0 0.375 0.5
54  0.75 0.375 0.5
55  0 0.25 0
56  0 0.75 0
57  0.25 0 0
58  0.75 0 0
59  0.25 1 0
60  0.75 1 0
61  1 0.25 0
62  1 0.75 0
63  0 0.125 1
64  0 0.375 1
65  0.125 0 1
66  0.375 0 1
67  0.125 0.5 1
68  0.375 0.5 1
69  0.5 0.125 1
70  0.5 0.375 1
71  0.25 0 0
72  0.75 0 0
73  0 0 0.25
74  0 0 0.75
75  0.875 0 0.25
76  0.625 0 0.75
77  0.125 0 1
78  0.375 0 1
79  0.25 1 0
80  0.75 1 0
81  0 0.875 0.25
82  0 0.625 0.75
83  0.875 0.875 0.25
84  0.625 0.625 0.75
85  0.125 0.5 1
86  0.375 0.5 1
87  0 0 0.25
88  0 0 0.75
89  0 0.25 0
90  0 0.75 0
91  0 0.125 1
92  0 0.375 1
93  0 0.875 0.25
94  0 0.625 0.75
95  0.875 0 0.25
96  0.625 0 0.75
97  1 0.25 0
98  1 0.75 0
99  0.5 0.125 1
100  0.5 0.375 1
101  0.875 0.875 0.25
102  0.625 0.625 0.75
103  0.25 0.5 0
104  0.75 0.5 0
105  0.5 0.25 0
106  0.5 0.75 0
107  0.25 0.125 1
108  0.25 0.375 1
109  0.125 0.25 1
110  0.375 0.25 1
111  0.4375 0 0.25
112  0.3125 0 0.75
113  0.1875 0 0.5
114  0.5625 0 0.5
115  0.1875 0.75 0.5
116  0.5625 0.75 0.5
117  0.4375 0.875 0.25
118  0.3125 0.625 0.75
119  0 0.1875 0.5
120  0 0.5625 0.5
121  0 0.4375 0.25
122  0 0.3125 0.75
123  0.875 0.4375 0.25
124  0.625 0.3125 0.75
125  0.75 0.1875 0.5
126  0.75 0.5625 0.5
127  0.25 0.25 0
128  0.25 0.75 0
129  0.75 0.25 0
130  0.75 0.75 0
131  0.125 0.125 1
132  0.375 0.125 1
133  0.125 0.375 1
134  0.375 0.375 1
135  0.21875 0 0.25
136  0.65625 0 0.25
137  0.15625 0 0.75
138  0.46875 0 0.75
139  0.21875 0.875 0.25
140  0.15625 0.625 0.75
141  0.65625 0.875 0.25
142  0.46875 0.625 0.75
143  0 0.21875 0.25
144  0 0.15625 0.75
145  0 0.65625 0.25
146  0 0.46875 0.75
147  0.875 0.21875 0.25
148  0.875 0.65625 0.25
149  0.625 0.15625 0.75
150  0.625 0.46875 0.75
1 1 quad    1 55 127 57 
2 1 quad    55 25 103 127 
3 1 quad    57 127 105 26 
4 1 quad    127 103 49 105 
5 1 quad    25 56 128 103 
6 1 quad    56 2 59 128 
7 1 quad    103 128 106 49 
8 1 quad    128 59 27 106 
9 1 quad    26 105 129 58 
10 1 quad    105 49 104 129 
11 1 quad    58 129 61 4 
12 1 quad    129 104 28 61 
13 1 quad    49 106 130 104 
14 1 quad    106 27 60 130 
15 1 quad    104 130 62 28 
16 1 quad    130 60 3 62 
17 0 quad    5 65 131 63 
18 0 quad    65 30 107 131 
19 0 quad    63 131 109 29 
20 0 quad    131 107 50 109 
21 0 quad    30 66 132 107 
22 0 quad    66 8 69 132 
23 0 quad    107 132 110 50 
24 0 quad    132 69 32 110 
25 0 quad    29 109 133 64 
26 0 quad    109 50 108 133 
27 0 quad    64 133 67 6 
28 0 quad    133 108 31 67 
29 0 quad    50 110 134 108 
30 0 quad    110 32 70 134 
31 0 quad    108 134 68 31 
32 0 quad    134 70 7 68 
33 1 quad    9 71 135 73 
34 1 quad    71 33 111 135 
35 1 quad    73 135 113 34 
36 1 quad    135 111 51 113 
37 1 quad    33 72 136 111 
38 1 quad    72 10 75 136 
39 1 quad    111 136 114 51 
40 1 quad    136 75 35 114 
41 1 quad    34 113 137 74 
42 1 quad    113 51 112 137 
43 1 quad    74 137 77 12 
44 1 quad    137 112 36 77 
45 1 quad    51 114 138 112 
46 1 quad    114 35 76 138 
47 1 quad    112 138 78 36 
48 1 quad    138 76 11 78 
49 1 quad    13 81 139 79 
50 1 quad    81 38 115 139 
51 1 quad    79 139 117 37 
52 1 quad    139 115 52 117 
53 1 quad    38 82 140 115 
54 1 quad    82 16 85 140 
55 1 quad    115 140 118 52 
56 1 quad    140 85 40 118 
57 1 quad    37 117 141 80 
58 1 quad    117 52 116 141 
59 1 quad    80 141 83 14 
60 1 quad    141 116 39 83 
61 1 quad    52 118 142 116 
62 1 quad    118 40 86 142 
63 1 quad    116 142 84 39 
64 1 quad    142 86 15 84 
65 1 quad    17 87 143 89 
66 1 quad    87 41 119 143 
67 1 quad    89 143 121 42 
68 1 quad    143 119 53 121 
69 1 quad    41 88 144 119 
70 1 quad    88 18 91 144 
71 1 quad    119 144 122 53 
72 1 quad    144 91 43 122 
73 1 quad    42 121 145 90 
74 1 quad    121 53 120 145 
75 1 quad    90 145 93 20 
76 1 quad    145 120 44 93 
77 1 quad    53 122 146 120 
78 1 quad    122 43 92 146 
79 1 quad    120 146 94 44 
80 1 quad    146 92 19 94 
81 1 quad    21 97 147 95 
82 1 quad    97 46 123 147 
83 1 quad    95 147 125 45 
84 1 quad    147 123 54 125 
85 1 quad    46 98 148 123 
86 1 quad    98 24 101 148 
87 1 quad    123 148 126 54 
88 1 quad    148 101 48 126 
89 1 quad    45 125 149 96 
90 1 quad    125 54 124 149 
91 1 quad    96 149 99 22 
92 1 quad    149 124 47 99 
93 1 quad    54 126 150 124 
94 1 quad    126 48 102 150 
95 1 quad    124 150 100 47 
96 1 quad    150 102 23 100 
